\ LP format - for model browsing. Use MPS format to capture full model detail.
Minimize
  - 3.44165598443e+11 Y0_0_1_1_0 - 3.44165598443e+11 Y0_0_1_1_1
   - 3.44165598443e+11 Y0_0_1_1_2 - 3.44165598443e+11 Y0_0_1_1_3
   - 3.25060306745e+11 Y0_0_1_2_0 - 3.25060306745e+11 Y0_0_1_2_1
   - 3.25060306745e+11 Y0_0_1_2_2 - 3.25060306745e+11 Y0_0_1_2_3
   - 3.2835950545e+11 Y0_0_1_3_0 - 3.2835950545e+11 Y0_0_1_3_1
   - 3.2835950545e+11 Y0_0_1_3_2 - 3.2835950545e+11 Y0_0_1_3_3
   - 1.73333207655e+11 Y0_0_2_1_0 - 1.73333207655e+11 Y0_0_2_1_1
   - 1.73333207655e+11 Y0_0_2_1_2 - 1.73333207655e+11 Y0_0_2_1_3
   - 1.66831902317e+11 Y0_0_2_2_0 - 1.66831902317e+11 Y0_0_2_2_1
   - 1.66831902317e+11 Y0_0_2_2_2 - 1.66831902317e+11 Y0_0_2_2_3
   - 1.68879175256e+11 Y0_0_2_3_0 - 1.68879175256e+11 Y0_0_2_3_1
   - 1.68879175256e+11 Y0_0_2_3_2 - 1.68879175256e+11 Y0_0_2_3_3
   - 3.08565568184e+11 Y0_0_3_1_0 - 3.08565568184e+11 Y0_0_3_1_1
   - 3.08565568184e+11 Y0_0_3_1_2 - 3.08565568184e+11 Y0_0_3_1_3
   - 2.99202878763e+11 Y0_0_3_2_0 - 2.99202878763e+11 Y0_0_3_2_1
   - 2.99202878763e+11 Y0_0_3_2_2 - 2.99202878763e+11 Y0_0_3_2_3
   - 2.96681206376e+11 Y0_0_3_3_0 - 2.96681206376e+11 Y0_0_3_3_1
   - 2.96681206376e+11 Y0_0_3_3_2 - 2.96681206376e+11 Y0_0_3_3_3
   - 3.26031638579e+11 Y0_1_1_2_0 - 3.26031638579e+11 Y0_1_1_2_1
   - 3.26031638579e+11 Y0_1_1_2_2 - 3.26031638579e+11 Y0_1_1_2_3
   - 3.29330844814e+11 Y0_1_1_3_0 - 3.29330844814e+11 Y0_1_1_3_1
   - 3.29330844814e+11 Y0_1_1_3_2 - 3.29330844814e+11 Y0_1_1_3_3
   - 1.67593373093e+11 Y0_1_2_2_0 - 1.67593373093e+11 Y0_1_2_2_1
   - 1.67593373093e+11 Y0_1_2_2_2 - 1.67593373093e+11 Y0_1_2_2_3
   - 1.69640660106e+11 Y0_1_2_3_0 - 1.69640660106e+11 Y0_1_2_3_1
   - 1.69640660106e+11 Y0_1_2_3_2 - 1.69640660106e+11 Y0_1_2_3_3
   - 2.99839427159e+11 Y0_1_3_2_0 - 2.99839427159e+11 Y0_1_3_2_1
   - 2.99839427159e+11 Y0_1_3_2_2 - 2.99839427159e+11 Y0_1_3_2_3
   - 2.97317735926e+11 Y0_1_3_3_0 - 2.97317735926e+11 Y0_1_3_3_1
   - 2.97317735926e+11 Y0_1_3_3_2 - 2.97317735926e+11 Y0_1_3_3_3
   - 3.28089913106e+11 Y0_2_1_3_0 - 3.28089913106e+11 Y0_2_1_3_1
   - 3.28089913106e+11 Y0_2_1_3_2 - 3.28089913106e+11 Y0_2_1_3_3
   - 1.68637851944e+11 Y0_2_2_3_0 - 1.68637851944e+11 Y0_2_2_3_1
   - 1.68637851944e+11 Y0_2_2_3_2 - 1.68637851944e+11 Y0_2_2_3_3
   - 2.96487689824e+11 Y0_2_3_3_0 - 2.96487689824e+11 Y0_2_3_3_1
   - 2.96487689824e+11 Y0_2_3_3_2 - 2.96487689824e+11 Y0_2_3_3_3
   - 4.01582581071e+11 Y1_0_2_1_0 - 4.01582581071e+11 Y1_0_2_1_1
   - 4.01582581071e+11 Y1_0_2_1_2 - 4.01582581071e+11 Y1_0_2_1_3
   - 3.88790687328e+11 Y1_0_2_2_0 - 3.88790687328e+11 Y1_0_2_2_1
   - 3.88790687328e+11 Y1_0_2_2_2 - 3.88790687328e+11 Y1_0_2_2_3
   - 3.89948587719e+11 Y1_0_2_3_0 - 3.89948587719e+11 Y1_0_2_3_1
   - 3.89948587719e+11 Y1_0_2_3_2 - 3.89948587719e+11 Y1_0_2_3_3
   - 1.48523991016e+11 Y1_0_3_1_0 - 1.48523991016e+11 Y1_0_3_1_1
   - 1.48523991016e+11 Y1_0_3_1_2 - 1.48523991016e+11 Y1_0_3_1_3
   - 1.39848574914e+11 Y1_0_3_2_0 - 1.39848574914e+11 Y1_0_3_2_1
   - 1.39848574914e+11 Y1_0_3_2_2 - 1.39848574914e+11 Y1_0_3_2_3
   - 1.38255043149e+11 Y1_0_3_3_0 - 1.38255043149e+11 Y1_0_3_3_1
   - 1.38255043149e+11 Y1_0_3_3_2 - 1.38255043149e+11 Y1_0_3_3_3
   - 3.96966344246e+11 Y1_1_2_2_0 - 3.96966344246e+11 Y1_1_2_2_1
   - 3.96966344246e+11 Y1_1_2_2_2 - 3.96966344246e+11 Y1_1_2_2_3
   - 3.98123953663e+11 Y1_1_2_3_0 - 3.98123953663e+11 Y1_1_2_3_1
   - 3.98123953663e+11 Y1_1_2_3_2 - 3.98123953663e+11 Y1_1_2_3_3
   - 1.46547011492e+11 Y1_1_3_2_0 - 1.46547011492e+11 Y1_1_3_2_1
   - 1.46547011492e+11 Y1_1_3_2_2 - 1.46547011492e+11 Y1_1_3_2_3
   - 1.44953694973e+11 Y1_1_3_3_0 - 1.44953694973e+11 Y1_1_3_3_1
   - 1.44953694973e+11 Y1_1_3_3_2 - 1.44953694973e+11 Y1_1_3_3_3
   - 3.83030090253e+11 Y1_2_2_3_0 - 3.83030090253e+11 Y1_2_2_3_1
   - 3.83030090253e+11 Y1_2_2_3_2 - 3.83030090253e+11 Y1_2_2_3_3
   - 1.33073043863e+11 Y1_2_3_3_0 - 1.33073043863e+11 Y1_2_3_3_1
   - 1.33073043863e+11 Y1_2_3_3_2 - 1.33073043863e+11 Y1_2_3_3_3
   - 1.747247266e+11 Y2_0_3_1_0 - 1.747247266e+11 Y2_0_3_1_1
   - 1.747247266e+11 Y2_0_3_1_2 - 1.747247266e+11 Y2_0_3_1_3
   - 1.6955133892e+11 Y2_0_3_2_0 - 1.6955133892e+11 Y2_0_3_2_1
   - 1.6955133892e+11 Y2_0_3_2_2 - 1.6955133892e+11 Y2_0_3_2_3
   - 1.672583644e+11 Y2_0_3_3_0 - 1.672583644e+11 Y2_0_3_3_1
   - 1.672583644e+11 Y2_0_3_3_2 - 1.672583644e+11 Y2_0_3_3_3
   - 1.69560059601e+11 Y2_1_3_2_0 - 1.69560059601e+11 Y2_1_3_2_1
   - 1.69560059601e+11 Y2_1_3_2_2 - 1.69560059601e+11 Y2_1_3_2_3
   - 1.67265436069e+11 Y2_1_3_3_0 - 1.67265436069e+11 Y2_1_3_3_1
   - 1.67265436069e+11 Y2_1_3_3_2 - 1.67265436069e+11 Y2_1_3_3_3
   - 1.59502582947e+11 Y2_2_3_3_0 - 1.59502582947e+11 Y2_2_3_3_1
   - 1.59502582947e+11 Y2_2_3_3_2 - 1.59502582947e+11 Y2_2_3_3_3
Subject To
 R0: X0_0_0 + X0_0_1 + X0_0_2 + X0_0_3 = 1
 R1: X0_1_0 + X0_1_1 + X0_1_2 + X0_1_3 = 1
 R2: X0_2_0 + X0_2_1 + X0_2_2 + X0_2_3 = 1
 R3: X0_3_0 + X0_3_1 + X0_3_2 + X0_3_3 = 1
 R4: X1_0_0 + X1_0_1 + X1_0_2 + X1_0_3 = 1
 R5: X1_1_0 + X1_1_1 + X1_1_2 + X1_1_3 = 1
 R6: X1_2_0 + X1_2_1 + X1_2_2 + X1_2_3 = 1
 R7: X1_3_0 + X1_3_1 + X1_3_2 + X1_3_3 = 1
 R8: X2_0_0 + X2_0_1 + X2_0_2 + X2_0_3 = 1
 R9: X2_1_0 + X2_1_1 + X2_1_2 + X2_1_3 = 1
 R10: X2_2_0 + X2_2_1 + X2_2_2 + X2_2_3 = 1
 R11: X2_3_0 + X2_3_1 + X2_3_2 + X2_3_3 = 1
 R12: X3_0_0 + X3_0_1 + X3_0_2 + X3_0_3 = 1
 R13: X3_1_0 + X3_1_1 + X3_1_2 + X3_1_3 = 1
 R14: X3_2_0 + X3_2_1 + X3_2_2 + X3_2_3 = 1
 R15: X3_3_0 + X3_3_1 + X3_3_2 + X3_3_3 = 1
 R16: X0_0_0 + X0_1_0 + X0_2_0 + X0_3_0 = 1
 R17: X1_0_0 + X1_1_0 + X1_2_0 + X1_3_0 = 1
 R18: X2_0_0 + X2_1_0 + X2_2_0 + X2_3_0 = 1
 R19: X3_0_0 + X3_1_0 + X3_2_0 + X3_3_0 = 1
 R20: X0_0_1 + X0_1_1 + X0_2_1 + X0_3_1 = 1
 R21: X1_0_1 + X1_1_1 + X1_2_1 + X1_3_1 = 1
 R22: X2_0_1 + X2_1_1 + X2_2_1 + X2_3_1 = 1
 R23: X3_0_1 + X3_1_1 + X3_2_1 + X3_3_1 = 1
 R24: X0_0_2 + X0_1_2 + X0_2_2 + X0_3_2 = 1
 R25: X1_0_2 + X1_1_2 + X1_2_2 + X1_3_2 = 1
 R26: X2_0_2 + X2_1_2 + X2_2_2 + X2_3_2 = 1
 R27: X3_0_2 + X3_1_2 + X3_2_2 + X3_3_2 = 1
 R28: X0_0_3 + X0_1_3 + X0_2_3 + X0_3_3 = 1
 R29: X1_0_3 + X1_1_3 + X1_2_3 + X1_3_3 = 1
 R30: X2_0_3 + X2_1_3 + X2_2_3 + X2_3_3 = 1
 R31: X3_0_3 + X3_1_3 + X3_2_3 + X3_3_3 = 1
 R32: - X0_0_0 + Y0_0_1_1_0 <= 0
 R33: - X0_0_0 + Y0_0_1_1_0 <= 0
 R34: - 2 X0_0_0 + Y0_0_1_1_0 >= -1
 R35: - X0_0_0 + Y0_0_1_2_0 <= 0
 R36: - X0_1_0 + Y0_0_1_2_0 <= 0
 R37: - X0_0_0 - X0_1_0 + Y0_0_1_2_0 >= -1
 R38: - X0_0_0 + Y0_0_1_3_0 <= 0
 R39: - X0_2_0 + Y0_0_1_3_0 <= 0
 R40: - X0_0_0 - X0_2_0 + Y0_0_1_3_0 >= -1
 R41: - X0_0_0 + Y0_0_2_1_0 <= 0
 R42: - X0_3_0 + Y0_0_2_1_0 <= 0
 R43: - X0_0_0 - X0_3_0 + Y0_0_2_1_0 >= -1
 R44: - X0_0_0 + Y0_0_2_2_0 <= 0
 R45: - X1_0_0 + Y0_0_2_2_0 <= 0
 R46: - X0_0_0 - X1_0_0 + Y0_0_2_2_0 >= -1
 R47: - X0_0_0 + Y0_0_2_3_0 <= 0
 R48: - X1_1_0 + Y0_0_2_3_0 <= 0
 R49: - X0_0_0 - X1_1_0 + Y0_0_2_3_0 >= -1
 R50: - X0_0_0 + Y0_0_3_1_0 <= 0
 R51: - X1_2_0 + Y0_0_3_1_0 <= 0
 R52: - X0_0_0 - X1_2_0 + Y0_0_3_1_0 >= -1
 R53: - X0_0_0 + Y0_0_3_2_0 <= 0
 R54: - X1_3_0 + Y0_0_3_2_0 <= 0
 R55: - X0_0_0 - X1_3_0 + Y0_0_3_2_0 >= -1
 R56: - X0_0_0 + Y0_0_3_3_0 <= 0
 R57: - X2_0_0 + Y0_0_3_3_0 <= 0
 R58: - X0_0_0 - X2_0_0 + Y0_0_3_3_0 >= -1
 R59: - X0_1_0 + Y0_1_1_2_0 <= 0
 R60: - X0_0_0 + Y0_1_1_2_0 <= 0
 R61: - X0_0_0 - X0_1_0 + Y0_1_1_2_0 >= -1
 R62: - X0_1_0 + Y0_1_1_3_0 <= 0
 R63: - X0_1_0 + Y0_1_1_3_0 <= 0
 R64: - 2 X0_1_0 + Y0_1_1_3_0 >= -1
 R65: - X0_1_0 + Y0_1_2_2_0 <= 0
 R66: - X0_2_0 + Y0_1_2_2_0 <= 0
 R67: - X0_1_0 - X0_2_0 + Y0_1_2_2_0 >= -1
 R68: - X0_1_0 + Y0_1_2_3_0 <= 0
 R69: - X0_3_0 + Y0_1_2_3_0 <= 0
 R70: - X0_1_0 - X0_3_0 + Y0_1_2_3_0 >= -1
 R71: - X0_1_0 + Y0_1_3_2_0 <= 0
 R72: - X1_0_0 + Y0_1_3_2_0 <= 0
 R73: - X0_1_0 - X1_0_0 + Y0_1_3_2_0 >= -1
 R74: - X0_1_0 + Y0_1_3_3_0 <= 0
 R75: - X1_1_0 + Y0_1_3_3_0 <= 0
 R76: - X0_1_0 - X1_1_0 + Y0_1_3_3_0 >= -1
 R77: - X0_2_0 + Y0_2_1_3_0 <= 0
 R78: - X0_0_0 + Y0_2_1_3_0 <= 0
 R79: - X0_0_0 - X0_2_0 + Y0_2_1_3_0 >= -1
 R80: - X0_2_0 + Y0_2_2_3_0 <= 0
 R81: - X0_1_0 + Y0_2_2_3_0 <= 0
 R82: - X0_1_0 - X0_2_0 + Y0_2_2_3_0 >= -1
 R83: - X0_2_0 + Y0_2_3_3_0 <= 0
 R84: - X0_2_0 + Y0_2_3_3_0 <= 0
 R85: - 2 X0_2_0 + Y0_2_3_3_0 >= -1
 R86: - X0_3_0 + Y1_0_2_1_0 <= 0
 R87: - X0_0_0 + Y1_0_2_1_0 <= 0
 R88: - X0_0_0 - X0_3_0 + Y1_0_2_1_0 >= -1
 R89: - X0_3_0 + Y1_0_2_2_0 <= 0
 R90: - X0_1_0 + Y1_0_2_2_0 <= 0
 R91: - X0_1_0 - X0_3_0 + Y1_0_2_2_0 >= -1
 R92: - X0_3_0 + Y1_0_2_3_0 <= 0
 R93: - X0_2_0 + Y1_0_2_3_0 <= 0
 R94: - X0_2_0 - X0_3_0 + Y1_0_2_3_0 >= -1
 R95: - X0_3_0 + Y1_0_3_1_0 <= 0
 R96: - X0_3_0 + Y1_0_3_1_0 <= 0
 R97: - 2 X0_3_0 + Y1_0_3_1_0 >= -1
 R98: - X0_3_0 + Y1_0_3_2_0 <= 0
 R99: - X1_0_0 + Y1_0_3_2_0 <= 0
 R100: - X0_3_0 - X1_0_0 + Y1_0_3_2_0 >= -1
 R101: - X0_3_0 + Y1_0_3_3_0 <= 0
 R102: - X1_1_0 + Y1_0_3_3_0 <= 0
 R103: - X0_3_0 - X1_1_0 + Y1_0_3_3_0 >= -1
 R104: - X1_0_0 + Y1_1_2_2_0 <= 0
 R105: - X0_0_0 + Y1_1_2_2_0 <= 0
 R106: - X0_0_0 - X1_0_0 + Y1_1_2_2_0 >= -1
 R107: - X1_0_0 + Y1_1_2_3_0 <= 0
 R108: - X0_1_0 + Y1_1_2_3_0 <= 0
 R109: - X0_1_0 - X1_0_0 + Y1_1_2_3_0 >= -1
 R110: - X1_0_0 + Y1_1_3_2_0 <= 0
 R111: - X0_2_0 + Y1_1_3_2_0 <= 0
 R112: - X0_2_0 - X1_0_0 + Y1_1_3_2_0 >= -1
 R113: - X1_0_0 + Y1_1_3_3_0 <= 0
 R114: - X0_3_0 + Y1_1_3_3_0 <= 0
 R115: - X0_3_0 - X1_0_0 + Y1_1_3_3_0 >= -1
 R116: - X1_1_0 + Y1_2_2_3_0 <= 0
 R117: - X0_0_0 + Y1_2_2_3_0 <= 0
 R118: - X0_0_0 - X1_1_0 + Y1_2_2_3_0 >= -1
 R119: - X1_1_0 + Y1_2_3_3_0 <= 0
 R120: - X0_1_0 + Y1_2_3_3_0 <= 0
 R121: - X0_1_0 - X1_1_0 + Y1_2_3_3_0 >= -1
 R122: - X1_2_0 + Y2_0_3_1_0 <= 0
 R123: - X0_0_0 + Y2_0_3_1_0 <= 0
 R124: - X0_0_0 - X1_2_0 + Y2_0_3_1_0 >= -1
 R125: - X1_2_0 + Y2_0_3_2_0 <= 0
 R126: - X0_1_0 + Y2_0_3_2_0 <= 0
 R127: - X0_1_0 - X1_2_0 + Y2_0_3_2_0 >= -1
 R128: - X1_2_0 + Y2_0_3_3_0 <= 0
 R129: - X0_2_0 + Y2_0_3_3_0 <= 0
 R130: - X0_2_0 - X1_2_0 + Y2_0_3_3_0 >= -1
 R131: - X1_3_0 + Y2_1_3_2_0 <= 0
 R132: - X0_0_0 + Y2_1_3_2_0 <= 0
 R133: - X0_0_0 - X1_3_0 + Y2_1_3_2_0 >= -1
 R134: - X1_3_0 + Y2_1_3_3_0 <= 0
 R135: - X0_1_0 + Y2_1_3_3_0 <= 0
 R136: - X0_1_0 - X1_3_0 + Y2_1_3_3_0 >= -1
 R137: - X2_0_0 + Y2_2_3_3_0 <= 0
 R138: - X0_0_0 + Y2_2_3_3_0 <= 0
 R139: - X0_0_0 - X2_0_0 + Y2_2_3_3_0 >= -1
 R140: - X0_0_1 + Y0_0_1_1_1 <= 0
 R141: - X0_0_1 + Y0_0_1_1_1 <= 0
 R142: - 2 X0_0_1 + Y0_0_1_1_1 >= -1
 R143: - X0_0_1 + Y0_0_1_2_1 <= 0
 R144: - X0_1_1 + Y0_0_1_2_1 <= 0
 R145: - X0_0_1 - X0_1_1 + Y0_0_1_2_1 >= -1
 R146: - X0_0_1 + Y0_0_1_3_1 <= 0
 R147: - X0_2_1 + Y0_0_1_3_1 <= 0
 R148: - X0_0_1 - X0_2_1 + Y0_0_1_3_1 >= -1
 R149: - X0_0_1 + Y0_0_2_1_1 <= 0
 R150: - X0_3_1 + Y0_0_2_1_1 <= 0
 R151: - X0_0_1 - X0_3_1 + Y0_0_2_1_1 >= -1
 R152: - X0_0_1 + Y0_0_2_2_1 <= 0
 R153: - X1_0_1 + Y0_0_2_2_1 <= 0
 R154: - X0_0_1 - X1_0_1 + Y0_0_2_2_1 >= -1
 R155: - X0_0_1 + Y0_0_2_3_1 <= 0
 R156: - X1_1_1 + Y0_0_2_3_1 <= 0
 R157: - X0_0_1 - X1_1_1 + Y0_0_2_3_1 >= -1
 R158: - X0_0_1 + Y0_0_3_1_1 <= 0
 R159: - X1_2_1 + Y0_0_3_1_1 <= 0
 R160: - X0_0_1 - X1_2_1 + Y0_0_3_1_1 >= -1
 R161: - X0_0_1 + Y0_0_3_2_1 <= 0
 R162: - X1_3_1 + Y0_0_3_2_1 <= 0
 R163: - X0_0_1 - X1_3_1 + Y0_0_3_2_1 >= -1
 R164: - X0_0_1 + Y0_0_3_3_1 <= 0
 R165: - X2_0_1 + Y0_0_3_3_1 <= 0
 R166: - X0_0_1 - X2_0_1 + Y0_0_3_3_1 >= -1
 R167: - X0_1_1 + Y0_1_1_2_1 <= 0
 R168: - X0_0_1 + Y0_1_1_2_1 <= 0
 R169: - X0_0_1 - X0_1_1 + Y0_1_1_2_1 >= -1
 R170: - X0_1_1 + Y0_1_1_3_1 <= 0
 R171: - X0_1_1 + Y0_1_1_3_1 <= 0
 R172: - 2 X0_1_1 + Y0_1_1_3_1 >= -1
 R173: - X0_1_1 + Y0_1_2_2_1 <= 0
 R174: - X0_2_1 + Y0_1_2_2_1 <= 0
 R175: - X0_1_1 - X0_2_1 + Y0_1_2_2_1 >= -1
 R176: - X0_1_1 + Y0_1_2_3_1 <= 0
 R177: - X0_3_1 + Y0_1_2_3_1 <= 0
 R178: - X0_1_1 - X0_3_1 + Y0_1_2_3_1 >= -1
 R179: - X0_1_1 + Y0_1_3_2_1 <= 0
 R180: - X1_0_1 + Y0_1_3_2_1 <= 0
 R181: - X0_1_1 - X1_0_1 + Y0_1_3_2_1 >= -1
 R182: - X0_1_1 + Y0_1_3_3_1 <= 0
 R183: - X1_1_1 + Y0_1_3_3_1 <= 0
 R184: - X0_1_1 - X1_1_1 + Y0_1_3_3_1 >= -1
 R185: - X0_2_1 + Y0_2_1_3_1 <= 0
 R186: - X0_0_1 + Y0_2_1_3_1 <= 0
 R187: - X0_0_1 - X0_2_1 + Y0_2_1_3_1 >= -1
 R188: - X0_2_1 + Y0_2_2_3_1 <= 0
 R189: - X0_1_1 + Y0_2_2_3_1 <= 0
 R190: - X0_1_1 - X0_2_1 + Y0_2_2_3_1 >= -1
 R191: - X0_2_1 + Y0_2_3_3_1 <= 0
 R192: - X0_2_1 + Y0_2_3_3_1 <= 0
 R193: - 2 X0_2_1 + Y0_2_3_3_1 >= -1
 R194: - X0_3_1 + Y1_0_2_1_1 <= 0
 R195: - X0_0_1 + Y1_0_2_1_1 <= 0
 R196: - X0_0_1 - X0_3_1 + Y1_0_2_1_1 >= -1
 R197: - X0_3_1 + Y1_0_2_2_1 <= 0
 R198: - X0_1_1 + Y1_0_2_2_1 <= 0
 R199: - X0_1_1 - X0_3_1 + Y1_0_2_2_1 >= -1
 R200: - X0_3_1 + Y1_0_2_3_1 <= 0
 R201: - X0_2_1 + Y1_0_2_3_1 <= 0
 R202: - X0_2_1 - X0_3_1 + Y1_0_2_3_1 >= -1
 R203: - X0_3_1 + Y1_0_3_1_1 <= 0
 R204: - X0_3_1 + Y1_0_3_1_1 <= 0
 R205: - 2 X0_3_1 + Y1_0_3_1_1 >= -1
 R206: - X0_3_1 + Y1_0_3_2_1 <= 0
 R207: - X1_0_1 + Y1_0_3_2_1 <= 0
 R208: - X0_3_1 - X1_0_1 + Y1_0_3_2_1 >= -1
 R209: - X0_3_1 + Y1_0_3_3_1 <= 0
 R210: - X1_1_1 + Y1_0_3_3_1 <= 0
 R211: - X0_3_1 - X1_1_1 + Y1_0_3_3_1 >= -1
 R212: - X1_0_1 + Y1_1_2_2_1 <= 0
 R213: - X0_0_1 + Y1_1_2_2_1 <= 0
 R214: - X0_0_1 - X1_0_1 + Y1_1_2_2_1 >= -1
 R215: - X1_0_1 + Y1_1_2_3_1 <= 0
 R216: - X0_1_1 + Y1_1_2_3_1 <= 0
 R217: - X0_1_1 - X1_0_1 + Y1_1_2_3_1 >= -1
 R218: - X1_0_1 + Y1_1_3_2_1 <= 0
 R219: - X0_2_1 + Y1_1_3_2_1 <= 0
 R220: - X0_2_1 - X1_0_1 + Y1_1_3_2_1 >= -1
 R221: - X1_0_1 + Y1_1_3_3_1 <= 0
 R222: - X0_3_1 + Y1_1_3_3_1 <= 0
 R223: - X0_3_1 - X1_0_1 + Y1_1_3_3_1 >= -1
 R224: - X1_1_1 + Y1_2_2_3_1 <= 0
 R225: - X0_0_1 + Y1_2_2_3_1 <= 0
 R226: - X0_0_1 - X1_1_1 + Y1_2_2_3_1 >= -1
 R227: - X1_1_1 + Y1_2_3_3_1 <= 0
 R228: - X0_1_1 + Y1_2_3_3_1 <= 0
 R229: - X0_1_1 - X1_1_1 + Y1_2_3_3_1 >= -1
 R230: - X1_2_1 + Y2_0_3_1_1 <= 0
 R231: - X0_0_1 + Y2_0_3_1_1 <= 0
 R232: - X0_0_1 - X1_2_1 + Y2_0_3_1_1 >= -1
 R233: - X1_2_1 + Y2_0_3_2_1 <= 0
 R234: - X0_1_1 + Y2_0_3_2_1 <= 0
 R235: - X0_1_1 - X1_2_1 + Y2_0_3_2_1 >= -1
 R236: - X1_2_1 + Y2_0_3_3_1 <= 0
 R237: - X0_2_1 + Y2_0_3_3_1 <= 0
 R238: - X0_2_1 - X1_2_1 + Y2_0_3_3_1 >= -1
 R239: - X1_3_1 + Y2_1_3_2_1 <= 0
 R240: - X0_0_1 + Y2_1_3_2_1 <= 0
 R241: - X0_0_1 - X1_3_1 + Y2_1_3_2_1 >= -1
 R242: - X1_3_1 + Y2_1_3_3_1 <= 0
 R243: - X0_1_1 + Y2_1_3_3_1 <= 0
 R244: - X0_1_1 - X1_3_1 + Y2_1_3_3_1 >= -1
 R245: - X2_0_1 + Y2_2_3_3_1 <= 0
 R246: - X0_0_1 + Y2_2_3_3_1 <= 0
 R247: - X0_0_1 - X2_0_1 + Y2_2_3_3_1 >= -1
 R248: - X0_0_2 + Y0_0_1_1_2 <= 0
 R249: - X0_0_2 + Y0_0_1_1_2 <= 0
 R250: - 2 X0_0_2 + Y0_0_1_1_2 >= -1
 R251: - X0_0_2 + Y0_0_1_2_2 <= 0
 R252: - X0_1_2 + Y0_0_1_2_2 <= 0
 R253: - X0_0_2 - X0_1_2 + Y0_0_1_2_2 >= -1
 R254: - X0_0_2 + Y0_0_1_3_2 <= 0
 R255: - X0_2_2 + Y0_0_1_3_2 <= 0
 R256: - X0_0_2 - X0_2_2 + Y0_0_1_3_2 >= -1
 R257: - X0_0_2 + Y0_0_2_1_2 <= 0
 R258: - X0_3_2 + Y0_0_2_1_2 <= 0
 R259: - X0_0_2 - X0_3_2 + Y0_0_2_1_2 >= -1
 R260: - X0_0_2 + Y0_0_2_2_2 <= 0
 R261: - X1_0_2 + Y0_0_2_2_2 <= 0
 R262: - X0_0_2 - X1_0_2 + Y0_0_2_2_2 >= -1
 R263: - X0_0_2 + Y0_0_2_3_2 <= 0
 R264: - X1_1_2 + Y0_0_2_3_2 <= 0
 R265: - X0_0_2 - X1_1_2 + Y0_0_2_3_2 >= -1
 R266: - X0_0_2 + Y0_0_3_1_2 <= 0
 R267: - X1_2_2 + Y0_0_3_1_2 <= 0
 R268: - X0_0_2 - X1_2_2 + Y0_0_3_1_2 >= -1
 R269: - X0_0_2 + Y0_0_3_2_2 <= 0
 R270: - X1_3_2 + Y0_0_3_2_2 <= 0
 R271: - X0_0_2 - X1_3_2 + Y0_0_3_2_2 >= -1
 R272: - X0_0_2 + Y0_0_3_3_2 <= 0
 R273: - X2_0_2 + Y0_0_3_3_2 <= 0
 R274: - X0_0_2 - X2_0_2 + Y0_0_3_3_2 >= -1
 R275: - X0_1_2 + Y0_1_1_2_2 <= 0
 R276: - X0_0_2 + Y0_1_1_2_2 <= 0
 R277: - X0_0_2 - X0_1_2 + Y0_1_1_2_2 >= -1
 R278: - X0_1_2 + Y0_1_1_3_2 <= 0
 R279: - X0_1_2 + Y0_1_1_3_2 <= 0
 R280: - 2 X0_1_2 + Y0_1_1_3_2 >= -1
 R281: - X0_1_2 + Y0_1_2_2_2 <= 0
 R282: - X0_2_2 + Y0_1_2_2_2 <= 0
 R283: - X0_1_2 - X0_2_2 + Y0_1_2_2_2 >= -1
 R284: - X0_1_2 + Y0_1_2_3_2 <= 0
 R285: - X0_3_2 + Y0_1_2_3_2 <= 0
 R286: - X0_1_2 - X0_3_2 + Y0_1_2_3_2 >= -1
 R287: - X0_1_2 + Y0_1_3_2_2 <= 0
 R288: - X1_0_2 + Y0_1_3_2_2 <= 0
 R289: - X0_1_2 - X1_0_2 + Y0_1_3_2_2 >= -1
 R290: - X0_1_2 + Y0_1_3_3_2 <= 0
 R291: - X1_1_2 + Y0_1_3_3_2 <= 0
 R292: - X0_1_2 - X1_1_2 + Y0_1_3_3_2 >= -1
 R293: - X0_2_2 + Y0_2_1_3_2 <= 0
 R294: - X0_0_2 + Y0_2_1_3_2 <= 0
 R295: - X0_0_2 - X0_2_2 + Y0_2_1_3_2 >= -1
 R296: - X0_2_2 + Y0_2_2_3_2 <= 0
 R297: - X0_1_2 + Y0_2_2_3_2 <= 0
 R298: - X0_1_2 - X0_2_2 + Y0_2_2_3_2 >= -1
 R299: - X0_2_2 + Y0_2_3_3_2 <= 0
 R300: - X0_2_2 + Y0_2_3_3_2 <= 0
 R301: - 2 X0_2_2 + Y0_2_3_3_2 >= -1
 R302: - X0_3_2 + Y1_0_2_1_2 <= 0
 R303: - X0_0_2 + Y1_0_2_1_2 <= 0
 R304: - X0_0_2 - X0_3_2 + Y1_0_2_1_2 >= -1
 R305: - X0_3_2 + Y1_0_2_2_2 <= 0
 R306: - X0_1_2 + Y1_0_2_2_2 <= 0
 R307: - X0_1_2 - X0_3_2 + Y1_0_2_2_2 >= -1
 R308: - X0_3_2 + Y1_0_2_3_2 <= 0
 R309: - X0_2_2 + Y1_0_2_3_2 <= 0
 R310: - X0_2_2 - X0_3_2 + Y1_0_2_3_2 >= -1
 R311: - X0_3_2 + Y1_0_3_1_2 <= 0
 R312: - X0_3_2 + Y1_0_3_1_2 <= 0
 R313: - 2 X0_3_2 + Y1_0_3_1_2 >= -1
 R314: - X0_3_2 + Y1_0_3_2_2 <= 0
 R315: - X1_0_2 + Y1_0_3_2_2 <= 0
 R316: - X0_3_2 - X1_0_2 + Y1_0_3_2_2 >= -1
 R317: - X0_3_2 + Y1_0_3_3_2 <= 0
 R318: - X1_1_2 + Y1_0_3_3_2 <= 0
 R319: - X0_3_2 - X1_1_2 + Y1_0_3_3_2 >= -1
 R320: - X1_0_2 + Y1_1_2_2_2 <= 0
 R321: - X0_0_2 + Y1_1_2_2_2 <= 0
 R322: - X0_0_2 - X1_0_2 + Y1_1_2_2_2 >= -1
 R323: - X1_0_2 + Y1_1_2_3_2 <= 0
 R324: - X0_1_2 + Y1_1_2_3_2 <= 0
 R325: - X0_1_2 - X1_0_2 + Y1_1_2_3_2 >= -1
 R326: - X1_0_2 + Y1_1_3_2_2 <= 0
 R327: - X0_2_2 + Y1_1_3_2_2 <= 0
 R328: - X0_2_2 - X1_0_2 + Y1_1_3_2_2 >= -1
 R329: - X1_0_2 + Y1_1_3_3_2 <= 0
 R330: - X0_3_2 + Y1_1_3_3_2 <= 0
 R331: - X0_3_2 - X1_0_2 + Y1_1_3_3_2 >= -1
 R332: - X1_1_2 + Y1_2_2_3_2 <= 0
 R333: - X0_0_2 + Y1_2_2_3_2 <= 0
 R334: - X0_0_2 - X1_1_2 + Y1_2_2_3_2 >= -1
 R335: - X1_1_2 + Y1_2_3_3_2 <= 0
 R336: - X0_1_2 + Y1_2_3_3_2 <= 0
 R337: - X0_1_2 - X1_1_2 + Y1_2_3_3_2 >= -1
 R338: - X1_2_2 + Y2_0_3_1_2 <= 0
 R339: - X0_0_2 + Y2_0_3_1_2 <= 0
 R340: - X0_0_2 - X1_2_2 + Y2_0_3_1_2 >= -1
 R341: - X1_2_2 + Y2_0_3_2_2 <= 0
 R342: - X0_1_2 + Y2_0_3_2_2 <= 0
 R343: - X0_1_2 - X1_2_2 + Y2_0_3_2_2 >= -1
 R344: - X1_2_2 + Y2_0_3_3_2 <= 0
 R345: - X0_2_2 + Y2_0_3_3_2 <= 0
 R346: - X0_2_2 - X1_2_2 + Y2_0_3_3_2 >= -1
 R347: - X1_3_2 + Y2_1_3_2_2 <= 0
 R348: - X0_0_2 + Y2_1_3_2_2 <= 0
 R349: - X0_0_2 - X1_3_2 + Y2_1_3_2_2 >= -1
 R350: - X1_3_2 + Y2_1_3_3_2 <= 0
 R351: - X0_1_2 + Y2_1_3_3_2 <= 0
 R352: - X0_1_2 - X1_3_2 + Y2_1_3_3_2 >= -1
 R353: - X2_0_2 + Y2_2_3_3_2 <= 0
 R354: - X0_0_2 + Y2_2_3_3_2 <= 0
 R355: - X0_0_2 - X2_0_2 + Y2_2_3_3_2 >= -1
 R356: - X0_0_3 + Y0_0_1_1_3 <= 0
 R357: - X0_0_3 + Y0_0_1_1_3 <= 0
 R358: - 2 X0_0_3 + Y0_0_1_1_3 >= -1
 R359: - X0_0_3 + Y0_0_1_2_3 <= 0
 R360: - X0_1_3 + Y0_0_1_2_3 <= 0
 R361: - X0_0_3 - X0_1_3 + Y0_0_1_2_3 >= -1
 R362: - X0_0_3 + Y0_0_1_3_3 <= 0
 R363: - X0_2_3 + Y0_0_1_3_3 <= 0
 R364: - X0_0_3 - X0_2_3 + Y0_0_1_3_3 >= -1
 R365: - X0_0_3 + Y0_0_2_1_3 <= 0
 R366: - X0_3_3 + Y0_0_2_1_3 <= 0
 R367: - X0_0_3 - X0_3_3 + Y0_0_2_1_3 >= -1
 R368: - X0_0_3 + Y0_0_2_2_3 <= 0
 R369: - X1_0_3 + Y0_0_2_2_3 <= 0
 R370: - X0_0_3 - X1_0_3 + Y0_0_2_2_3 >= -1
 R371: - X0_0_3 + Y0_0_2_3_3 <= 0
 R372: - X1_1_3 + Y0_0_2_3_3 <= 0
 R373: - X0_0_3 - X1_1_3 + Y0_0_2_3_3 >= -1
 R374: - X0_0_3 + Y0_0_3_1_3 <= 0
 R375: - X1_2_3 + Y0_0_3_1_3 <= 0
 R376: - X0_0_3 - X1_2_3 + Y0_0_3_1_3 >= -1
 R377: - X0_0_3 + Y0_0_3_2_3 <= 0
 R378: - X1_3_3 + Y0_0_3_2_3 <= 0
 R379: - X0_0_3 - X1_3_3 + Y0_0_3_2_3 >= -1
 R380: - X0_0_3 + Y0_0_3_3_3 <= 0
 R381: - X2_0_3 + Y0_0_3_3_3 <= 0
 R382: - X0_0_3 - X2_0_3 + Y0_0_3_3_3 >= -1
 R383: - X0_1_3 + Y0_1_1_2_3 <= 0
 R384: - X0_0_3 + Y0_1_1_2_3 <= 0
 R385: - X0_0_3 - X0_1_3 + Y0_1_1_2_3 >= -1
 R386: - X0_1_3 + Y0_1_1_3_3 <= 0
 R387: - X0_1_3 + Y0_1_1_3_3 <= 0
 R388: - 2 X0_1_3 + Y0_1_1_3_3 >= -1
 R389: - X0_1_3 + Y0_1_2_2_3 <= 0
 R390: - X0_2_3 + Y0_1_2_2_3 <= 0
 R391: - X0_1_3 - X0_2_3 + Y0_1_2_2_3 >= -1
 R392: - X0_1_3 + Y0_1_2_3_3 <= 0
 R393: - X0_3_3 + Y0_1_2_3_3 <= 0
 R394: - X0_1_3 - X0_3_3 + Y0_1_2_3_3 >= -1
 R395: - X0_1_3 + Y0_1_3_2_3 <= 0
 R396: - X1_0_3 + Y0_1_3_2_3 <= 0
 R397: - X0_1_3 - X1_0_3 + Y0_1_3_2_3 >= -1
 R398: - X0_1_3 + Y0_1_3_3_3 <= 0
 R399: - X1_1_3 + Y0_1_3_3_3 <= 0
 R400: - X0_1_3 - X1_1_3 + Y0_1_3_3_3 >= -1
 R401: - X0_2_3 + Y0_2_1_3_3 <= 0
 R402: - X0_0_3 + Y0_2_1_3_3 <= 0
 R403: - X0_0_3 - X0_2_3 + Y0_2_1_3_3 >= -1
 R404: - X0_2_3 + Y0_2_2_3_3 <= 0
 R405: - X0_1_3 + Y0_2_2_3_3 <= 0
 R406: - X0_1_3 - X0_2_3 + Y0_2_2_3_3 >= -1
 R407: - X0_2_3 + Y0_2_3_3_3 <= 0
 R408: - X0_2_3 + Y0_2_3_3_3 <= 0
 R409: - 2 X0_2_3 + Y0_2_3_3_3 >= -1
 R410: - X0_3_3 + Y1_0_2_1_3 <= 0
 R411: - X0_0_3 + Y1_0_2_1_3 <= 0
 R412: - X0_0_3 - X0_3_3 + Y1_0_2_1_3 >= -1
 R413: - X0_3_3 + Y1_0_2_2_3 <= 0
 R414: - X0_1_3 + Y1_0_2_2_3 <= 0
 R415: - X0_1_3 - X0_3_3 + Y1_0_2_2_3 >= -1
 R416: - X0_3_3 + Y1_0_2_3_3 <= 0
 R417: - X0_2_3 + Y1_0_2_3_3 <= 0
 R418: - X0_2_3 - X0_3_3 + Y1_0_2_3_3 >= -1
 R419: - X0_3_3 + Y1_0_3_1_3 <= 0
 R420: - X0_3_3 + Y1_0_3_1_3 <= 0
 R421: - 2 X0_3_3 + Y1_0_3_1_3 >= -1
 R422: - X0_3_3 + Y1_0_3_2_3 <= 0
 R423: - X1_0_3 + Y1_0_3_2_3 <= 0
 R424: - X0_3_3 - X1_0_3 + Y1_0_3_2_3 >= -1
 R425: - X0_3_3 + Y1_0_3_3_3 <= 0
 R426: - X1_1_3 + Y1_0_3_3_3 <= 0
 R427: - X0_3_3 - X1_1_3 + Y1_0_3_3_3 >= -1
 R428: - X1_0_3 + Y1_1_2_2_3 <= 0
 R429: - X0_0_3 + Y1_1_2_2_3 <= 0
 R430: - X0_0_3 - X1_0_3 + Y1_1_2_2_3 >= -1
 R431: - X1_0_3 + Y1_1_2_3_3 <= 0
 R432: - X0_1_3 + Y1_1_2_3_3 <= 0
 R433: - X0_1_3 - X1_0_3 + Y1_1_2_3_3 >= -1
 R434: - X1_0_3 + Y1_1_3_2_3 <= 0
 R435: - X0_2_3 + Y1_1_3_2_3 <= 0
 R436: - X0_2_3 - X1_0_3 + Y1_1_3_2_3 >= -1
 R437: - X1_0_3 + Y1_1_3_3_3 <= 0
 R438: - X0_3_3 + Y1_1_3_3_3 <= 0
 R439: - X0_3_3 - X1_0_3 + Y1_1_3_3_3 >= -1
 R440: - X1_1_3 + Y1_2_2_3_3 <= 0
 R441: - X0_0_3 + Y1_2_2_3_3 <= 0
 R442: - X0_0_3 - X1_1_3 + Y1_2_2_3_3 >= -1
 R443: - X1_1_3 + Y1_2_3_3_3 <= 0
 R444: - X0_1_3 + Y1_2_3_3_3 <= 0
 R445: - X0_1_3 - X1_1_3 + Y1_2_3_3_3 >= -1
 R446: - X1_2_3 + Y2_0_3_1_3 <= 0
 R447: - X0_0_3 + Y2_0_3_1_3 <= 0
 R448: - X0_0_3 - X1_2_3 + Y2_0_3_1_3 >= -1
 R449: - X1_2_3 + Y2_0_3_2_3 <= 0
 R450: - X0_1_3 + Y2_0_3_2_3 <= 0
 R451: - X0_1_3 - X1_2_3 + Y2_0_3_2_3 >= -1
 R452: - X1_2_3 + Y2_0_3_3_3 <= 0
 R453: - X0_2_3 + Y2_0_3_3_3 <= 0
 R454: - X0_2_3 - X1_2_3 + Y2_0_3_3_3 >= -1
 R455: - X1_3_3 + Y2_1_3_2_3 <= 0
 R456: - X0_0_3 + Y2_1_3_2_3 <= 0
 R457: - X0_0_3 - X1_3_3 + Y2_1_3_2_3 >= -1
 R458: - X1_3_3 + Y2_1_3_3_3 <= 0
 R459: - X0_1_3 + Y2_1_3_3_3 <= 0
 R460: - X0_1_3 - X1_3_3 + Y2_1_3_3_3 >= -1
 R461: - X2_0_3 + Y2_2_3_3_3 <= 0
 R462: - X0_0_3 + Y2_2_3_3_3 <= 0
 R463: - X0_0_3 - X2_0_3 + Y2_2_3_3_3 >= -1
Bounds
Binaries
 X0_0_0 X0_0_1 X0_0_2 X0_0_3 X0_1_0 X0_1_1 X0_1_2 X0_1_3 X0_2_0 X0_2_1
 X0_2_2 X0_2_3 X0_3_0 X0_3_1 X0_3_2 X0_3_3 X1_0_0 X1_0_1 X1_0_2 X1_0_3
 X1_1_0 X1_1_1 X1_1_2 X1_1_3 X1_2_0 X1_2_1 X1_2_2 X1_2_3 X1_3_0 X1_3_1
 X1_3_2 X1_3_3 X2_0_0 X2_0_1 X2_0_2 X2_0_3 X2_1_0 X2_1_1 X2_1_2 X2_1_3
 X2_2_0 X2_2_1 X2_2_2 X2_2_3 X2_3_0 X2_3_1 X2_3_2 X2_3_3 X3_0_0 X3_0_1
 X3_0_2 X3_0_3 X3_1_0 X3_1_1 X3_1_2 X3_1_3 X3_2_0 X3_2_1 X3_2_2 X3_2_3
 X3_3_0 X3_3_1 X3_3_2 X3_3_3 Y0_0_1_1_0 Y0_0_1_1_1 Y0_0_1_1_2 Y0_0_1_1_3
 Y0_0_1_2_0 Y0_0_1_2_1 Y0_0_1_2_2 Y0_0_1_2_3 Y0_0_1_3_0 Y0_0_1_3_1
 Y0_0_1_3_2 Y0_0_1_3_3 Y0_0_2_1_0 Y0_0_2_1_1 Y0_0_2_1_2 Y0_0_2_1_3
 Y0_0_2_2_0 Y0_0_2_2_1 Y0_0_2_2_2 Y0_0_2_2_3 Y0_0_2_3_0 Y0_0_2_3_1
 Y0_0_2_3_2 Y0_0_2_3_3 Y0_0_3_1_0 Y0_0_3_1_1 Y0_0_3_1_2 Y0_0_3_1_3
 Y0_0_3_2_0 Y0_0_3_2_1 Y0_0_3_2_2 Y0_0_3_2_3 Y0_0_3_3_0 Y0_0_3_3_1
 Y0_0_3_3_2 Y0_0_3_3_3 Y0_1_1_2_0 Y0_1_1_2_1 Y0_1_1_2_2 Y0_1_1_2_3
 Y0_1_1_3_0 Y0_1_1_3_1 Y0_1_1_3_2 Y0_1_1_3_3 Y0_1_2_2_0 Y0_1_2_2_1
 Y0_1_2_2_2 Y0_1_2_2_3 Y0_1_2_3_0 Y0_1_2_3_1 Y0_1_2_3_2 Y0_1_2_3_3
 Y0_1_3_2_0 Y0_1_3_2_1 Y0_1_3_2_2 Y0_1_3_2_3 Y0_1_3_3_0 Y0_1_3_3_1
 Y0_1_3_3_2 Y0_1_3_3_3 Y0_2_1_3_0 Y0_2_1_3_1 Y0_2_1_3_2 Y0_2_1_3_3
 Y0_2_2_3_0 Y0_2_2_3_1 Y0_2_2_3_2 Y0_2_2_3_3 Y0_2_3_3_0 Y0_2_3_3_1
 Y0_2_3_3_2 Y0_2_3_3_3 Y1_0_2_1_0 Y1_0_2_1_1 Y1_0_2_1_2 Y1_0_2_1_3
 Y1_0_2_2_0 Y1_0_2_2_1 Y1_0_2_2_2 Y1_0_2_2_3 Y1_0_2_3_0 Y1_0_2_3_1
 Y1_0_2_3_2 Y1_0_2_3_3 Y1_0_3_1_0 Y1_0_3_1_1 Y1_0_3_1_2 Y1_0_3_1_3
 Y1_0_3_2_0 Y1_0_3_2_1 Y1_0_3_2_2 Y1_0_3_2_3 Y1_0_3_3_0 Y1_0_3_3_1
 Y1_0_3_3_2 Y1_0_3_3_3 Y1_1_2_2_0 Y1_1_2_2_1 Y1_1_2_2_2 Y1_1_2_2_3
 Y1_1_2_3_0 Y1_1_2_3_1 Y1_1_2_3_2 Y1_1_2_3_3 Y1_1_3_2_0 Y1_1_3_2_1
 Y1_1_3_2_2 Y1_1_3_2_3 Y1_1_3_3_0 Y1_1_3_3_1 Y1_1_3_3_2 Y1_1_3_3_3
 Y1_2_2_3_0 Y1_2_2_3_1 Y1_2_2_3_2 Y1_2_2_3_3 Y1_2_3_3_0 Y1_2_3_3_1
 Y1_2_3_3_2 Y1_2_3_3_3 Y2_0_3_1_0 Y2_0_3_1_1 Y2_0_3_1_2 Y2_0_3_1_3
 Y2_0_3_2_0 Y2_0_3_2_1 Y2_0_3_2_2 Y2_0_3_2_3 Y2_0_3_3_0 Y2_0_3_3_1
 Y2_0_3_3_2 Y2_0_3_3_3 Y2_1_3_2_0 Y2_1_3_2_1 Y2_1_3_2_2 Y2_1_3_2_3
 Y2_1_3_3_0 Y2_1_3_3_1 Y2_1_3_3_2 Y2_1_3_3_3 Y2_2_3_3_0 Y2_2_3_3_1
 Y2_2_3_3_2 Y2_2_3_3_3
End
